p cnf 7230 17
-3888 -6349 -6485 0
-3870 -6331 -6483 0
-3868 -6329 -6481 0
3888 -6486 0
3870 -6484 0
3868 -6482 0
6485 6486 0
6483 6484 0
6481 6482 0
6349 -6486 0
6331 -6484 0
6329 -6482 0
-6223 -6345 6488 0
-6479 6480 0
6479 -6480 0
6345 -6488 0
6223 -6488 0
